NAME: concorde91
TYPE: TSP
DIMENSION: 25 
EDGE_WEIGHT_TYPE: EUC_2D
NODE_COORD_SECTION
1 71 47
2 7 9
3 95 54
4 42 75
5 91 57
6 18 36
7 46 28
8 26 52
9 65 85
10 25 14
11 78 78
12 93 51
13 66 13
14 76 0
15 49 32
16 14 1
17 91 14
18 53 87
19 77 61
20 5 4
21 33 57
22 42 30
23 23 84
24 12 9
25 19 59
